Problem:    
Rows:       195
Columns:    69 (54 integer, 54 binary)
Non-zeros:  604
Status:     INTEGER OPTIMAL
Objective:  value = 61.919138 (MINimum)

   No.   Row name        Activity     Lower bound   Upper bound
------ ------------    ------------- ------------- -------------
     1 r.5                   61.9191             0               
     2 r.6                   61.9191      -982.031               
     3 r.7                   1061.92             0               
     4 r.8                  -938.081      -970.244               
     5 r.9                   1061.92             0               
     6 r.10                 -980.624      -985.482               
     7 r.11                  61.9191             0               
     8 r.12                 -956.703       -961.56               
     9 r.13                  1061.92             0               
    10 r.14                 -954.742      -984.234               
    11 r.15                  61.9191             0               
    12 r.16                  45.2584      -975.644               
    13 r.17                  1061.92             0               
    14 r.18                 -970.508      -989.883               
    15 r.19                  61.9191             0               
    16 r.20                 -974.434      -979.291               
    17 r.21                  61.9191             0               
    18 r.22                  45.2584      -984.451               
    19 r.23                  1061.92             0               
    20 r.24                 -973.615      -978.472               
    21 r.25                  1061.92             0               
    22 r.26                 -995.142      -995.142               
    23 r.27                  61.9191             0               
    24 r.28                   4.8577      -970.421               
    25 r.29                  1061.92             0               
    26 r.30                 -938.081      -983.339               
    27 r.31                  61.9191             0               
    28 r.32                  61.9191      -981.292               
    29 r.33                        1             1             = 
    30 r.34                        1             1             = 
    31 r.35                        1             1             = 
    32 r.36                        1             1             = 
    33 r.37                        1             1             = 
    34 r.38                        1             1             = 
    35 r.39                        1             1             = 
    36 r.40                     1001             2               
    37 r.41                    -1001         -1001               
    38 r.42                  1957.46      -985.482               
    39 r.43                     1001             2               
    40 r.44                    -1001         -1001               
    41 r.45                  981.378       -961.56               
    42 r.46                     1001             2               
    43 r.47                    -1001         -1001               
    44 r.48                  1983.34      -984.234               
    45 r.49                     1001             2               
    46 r.50                    -1001         -1001               
    47 r.51                  1983.34      -975.644               
    48 r.52                     1001             2               
    49 r.53                    -1001         -1001               
    50 r.54                  1967.57      -989.883               
    51 r.55                     1001             2               
    52 r.56                    -1001         -1001               
    53 r.57                  963.647      -979.291               
    54 r.58                     1000             2               
    55 r.59                    -1000         -1001               
    56 r.60                  1983.34      -984.451               
    57 r.61                        2             2               
    58 r.62                       -2         -1001               
    59 r.63                 -35.5336      -978.472               
    60 r.64                  57.0614      -982.031               
    61 r.65                 -942.939      -970.244               
    62 r.66                  57.0614      -982.031               
    63 r.67                 -942.939      -970.244               
    64 r.68                     1001             2               
    65 r.69                    -1001         -1001               
    66 r.70                     2000      -983.339               
    67 r.71                     1001             2               
    68 r.72                    -1001         -1001               
    69 r.73                     2000      -981.292               
    70 r.74                     1001             2               
    71 r.75                    -1001         -1001               
    72 r.76                  2042.54       17.9686               
    73 r.77                     1001             2               
    74 r.78                    -1001         -1001               
    75 r.79                  3018.62       29.7564               
    76 r.80                        2             2               
    77 r.81                       -2         -1001               
    78 r.82                 -974.117      -984.234               
    79 r.83                     1000             2               
    80 r.84                    -1000         -1001               
    81 r.85                  3001.96      -975.644               
    82 r.86                        2             2               
    83 r.87                       -2         -1001               
    84 r.88                 -989.883      -989.883               
    85 r.89                     1000             2               
    86 r.90                    -1000         -1001               
    87 r.91                  1982.27      -979.291               
    88 r.92                     1001             2               
    89 r.93                    -1001         -1001               
    90 r.94                  2025.88      -984.451               
    91 r.95                     1001             2               
    92 r.96                    -1001         -1001               
    93 r.97                  2983.09      -978.472               
    94 r.98                 -985.482      -985.482               
    95 r.99                  -961.56       -961.56               
    96 r.100                -985.482      -985.482               
    97 r.101                 -961.56       -961.56               
    98 r.102                -957.456      -983.339               
    99 r.103                 42.5436      -981.292               
   100 r.104                 18.6217      -983.339               
   101 r.105                 1018.62      -981.292               
   102 r.106                    1001             2               
   103 r.107                   -1001         -1001               
   104 r.108                 2016.66       17.9686               
   105 r.109                    1001             2               
   106 r.110                   -1001         -1001               
   107 r.111                 2016.66       29.7564               
   108 r.112                       2             2               
   109 r.113                      -2         -1001               
   110 r.114                 974.117       14.5178               
   111 r.115                    1000             2               
   112 r.116                   -1000         -1001               
   113 r.117                 998.039       38.4398               
   114 r.118                -984.234      -984.234               
   115 r.119                 15.7659      -975.644               
   116 r.120                 19.6919      -984.234               
   117 r.121                 1019.69      -975.644               
   118 r.122                    1001             2               
   119 r.123                   -1001         -1001               
   120 r.124                    2000      -984.451               
   121 r.125                    1001             2               
   122 r.126                   -1001         -1001               
   123 r.127                 1981.13      -978.472               
   124 r.128                -959.599      -984.234               
   125 r.129                 40.4007      -975.644               
   126 r.130                -959.599      -984.234               
   127 r.131                 40.4007      -975.644               
   128 r.132                -983.339      -983.339               
   129 r.133                 16.6608      -981.292               
   130 r.134                -983.339      -983.339               
   131 r.135                 16.6608      -981.292               
   132 r.136                    1001             2               
   133 r.137                   -1001         -1001               
   134 r.138                 2032.43       17.9686               
   135 r.139                    1001             2               
   136 r.140                   -1001         -1001               
   137 r.141                 3036.35       29.7564               
   138 r.142                       2             2               
   139 r.143                      -2         -1001               
   140 r.144                 989.883       14.5178               
   141 r.145                    1000             2               
   142 r.146                   -1000         -1001               
   143 r.147                 2017.73       38.4398               
   144 r.148                    1001             2               
   145 r.149                   -1001         -1001               
   146 r.150                 2015.77      -984.451               
   147 r.151                    1001             2               
   148 r.152                   -1001         -1001               
   149 r.153                 3000.82      -978.472               
   150 r.154                -975.365      -989.883               
   151 r.155                -979.291      -979.291               
   152 r.156                -975.365      -989.883               
   153 r.157                -979.291      -979.291               
   154 r.158                -967.573      -983.339               
   155 r.159                 32.4267      -981.292               
   156 r.160                 36.3527      -983.339               
   157 r.161                 1036.35      -981.292               
   158 r.162                    1000             2               
   159 r.163                   -1000         -1001               
   160 r.164                 2016.66       17.9686               
   161 r.165                       2             2               
   162 r.166                      -2         -1001               
   163 r.167                 35.5336       29.7564               
   164 r.168                    1001             2               
   165 r.169                   -1001         -1001               
   166 r.170                 1974.12       14.5178               
   167 r.171                    1001             2               
   168 r.172                   -1001         -1001               
   169 r.173                 1016.91       38.4398               
   170 r.174                    1001             2               
   171 r.175                   -1001         -1001               
   172 r.176                    2000       15.7659               
   173 r.177                    1001             2               
   174 r.178                   -1001         -1001               
   175 r.179                 2018.87       24.3564               
   176 r.180                    1001             2               
   177 r.181                   -1001         -1001               
   178 r.182                 1984.23        10.117               
   179 r.183                    1001             2               
   180 r.184                   -1001         -1001               
   181 r.185                 999.181       20.7088               
   182 r.186                 40.4007      -984.451               
   183 r.187                -978.472      -978.472               
   184 r.188                 40.4007      -984.451               
   185 r.189                -978.472      -978.472               
   186 r.190                -983.339      -983.339               
   187 r.191                 16.6608      -981.292               
   188 r.192                -964.466      -983.339               
   189 r.193                 35.5336      -981.292               
   190 r.194                    1001             2               
   191 r.195                   -1001         -1001               
   192 r.196                    2000       17.9686               
   193 r.197                    1001             2               
   194 r.198                   -1001         -1001               
   195 r.199                    2000       29.7564               

   No. Column name       Activity     Lower bound   Upper bound
------ ------------    ------------- ------------- -------------
     1 tt                    61.9191             0               
     2 s_1_1        *              0             0             1 
     3 t_1_1                       0             0               
     4 s_2_1        *              1             0             1 
     5 t_2_1                       0             0               
     6 s_1_2        *              1             0             1 
     7 t_1_2                 42.5436             0               
     8 s_1_7        *              1             0             1 
     9 s_2_2        *              0             0             1 
    10 t_2_2                 1018.62             0               
    11 s_2_7        *              0             0             1 
    12 s_1_3        *              1             0             1 
    13 t_1_3                 16.6608             0               
    14 s_2_3        *              0             0             1 
    15 t_2_3                 16.6608             0               
    16 s_1_4        *              1             0             1 
    17 t_1_4                 32.4267             0               
    18 s_2_4        *              0             0             1 
    19 t_2_4                 1036.35             0               
    20 s_1_5        *              0             0             1 
    21 t_1_5                 16.6608             0               
    22 s_2_5        *              1             0             1 
    23 t_2_5                 35.5336             0               
    24 s_1_6        *              1             0             1 
    25 t_1_6                 57.0614             0               
    26 s_2_6        *              0             0             1 
    27 t_2_6                 57.0614             0               
    28 t_1_7                       0             0               
    29 t_2_7                       0             0               
    30 r_1_1_2      *              1             0             1 
    31 u_1_1_2      *              0             0             1 
    32 r_2_1_2      *              1             0             1 
    33 u_2_1_2      *              0             0             1 
    34 r_1_1_3      *              1             0             1 
    35 u_1_1_3      *              0             0             1 
    36 r_2_1_3      *              1             0             1 
    37 u_2_1_3      *              0             0             1 
    38 r_1_1_4      *              1             0             1 
    39 u_1_1_4      *              0             0             1 
    40 r_2_1_4      *              1             0             1 
    41 u_2_1_4      *              0             0             1 
    42 r_1_1_5      *              1             0             1 
    43 u_1_1_5      *              0             0             1 
    44 r_2_1_5      *              0             0             1 
    45 u_2_1_5      *              0             0             1 
    46 r_1_1_7      *              1             0             1 
    47 u_1_1_7      *              0             0             1 
    48 r_2_1_7      *              1             0             1 
    49 u_2_1_7      *              0             0             1 
    50 r_1_2_3      *              0             0             1 
    51 u_1_2_3      *              1             0             1 
    52 r_2_2_3      *              1             0             1 
    53 u_2_2_3      *              0             0             1 
    54 r_1_2_4      *              0             0             1 
    55 u_1_2_4      *              1             0             1 
    56 r_2_2_4      *              1             0             1 
    57 u_2_2_4      *              0             0             1 
    58 r_1_2_5      *              1             0             1 
    59 u_1_2_5      *              0             0             1 
    60 r_2_2_5      *              1             0             1 
    61 u_2_2_5      *              0             0             1 
    62 r_1_3_5      *              1             0             1 
    63 u_1_3_5      *              0             0             1 
    64 r_2_3_5      *              1             0             1 
    65 u_2_3_5      *              0             0             1 
    66 r_1_4_5      *              1             0             1 
    67 u_1_4_5      *              0             0             1 
    68 r_2_4_5      *              1             0             1 
    69 u_2_4_5      *              0             0             1 

Integer feasibility conditions:

KKT.PE: max.abs.err = 4.55e-13 on row 93
        max.rel.err = 7.53e-17 on row 93
        High quality

KKT.PB: max.abs.err = 0.00e+00 on row 0
        max.rel.err = 0.00e+00 on row 0
        High quality

End of output
